137472
1,10,29,64,73,13,18,37,45,80,62,70,26,76,67,36,66,20,71,21,48,24,19,5,22,44,68,59,53,4,63,39,52,41,50,65,8,28,35,30,2,38,16,11,75,82,40,74,32,58,77,9,33,27,7,56,17,79,6,61,15,69,78,25,42,55,23,12,3,57,34,49,43,60,81,72,51,47,83,31,14,46,54